%SETS
JOBS     = 1..2;
MACHINES = 1..22;
SPEED    = 1;

time               = array3d(JOBS,MACHINES,1..SPEED,[51, 80, 20, 67, 22, 95, 56, 47, 33, 79, 51, 61, 11, 65, 65, 65, 94, 71, 42, 49, 72, 15, 70, 70, 28, 21, 38, 42, 61, 49, 98, 19, 28, 24, 68, 32, 51, 31, 24, 19, 69, 22, 27, 43]);
energy             = array3d(JOBS,MACHINES,1..SPEED,[60, 44, 81, 51, 80, 38, 57, 62, 71, 45, 60, 54, 89, 52, 52, 52, 39, 49, 65, 61, 48, 86, 49, 49, 75, 81, 68, 65, 54, 61, 37, 82, 75, 78, 50, 72, 60, 73, 78, 82, 50, 80, 76, 65]);
precedence         = array2d(JOBS,MACHINES,[20,7,16,13,17,21,0,9,4,1,11,6,5,14,3,10,12,19,18,2,15,8,4,14,21,19,15,3,6,2,0,11,10,12,1,7,17,8,5,9,16,18,13,20]);